32      4       
10      10      10      10      
0       0       0       0       0       3       2       3       6       
7       0       1       1       1       3       4       5       7       
4       1       2       0       4       4       5       7       10      11      
8       5       3       7       0       4       8       10      11      12      
1       0       5       5       2       3       9       12      17      
9       1       0       5       8       3       9       11      20      
8       6       0       6       6       8       13      14      15      16      17      18      19      20      
3       5       0       4       4       7       13      14      15      16      18      19      20      
7       0       5       3       4       5       13      14      15      16      19      
3       2       4       0       6       5       13      16      17      18      20      
6       3       1       6       0       5       13      14      17      18      21      
7       0       5       3       5       3       13      18      20      
8       4       3       0       5       5       22      23      27      28      30      
4       3       4       5       0       5       22      23      27      28      30      
2       0       6       4       7       3       21      22      30      
5       3       7       0       2       7       23      26      27      28      29      30      31      
7       0       4       5       2       7       23      26      27      28      29      30      31      
9       0       8       7       5       5       22      25      27      28      30      
5       0       4       7       1       5       22      25      27      28      30      
1       4       0       4       4       3       21      29      30      
4       5       4       0       3       5       24      25      26      27      28      
3       5       4       4       0       4       24      26      29      31      
8       6       0       2       7       2       24      25      
2       6       2       3       0       1       32      
6       4       4       3       0       1       32      
7       5       0       2       2       1       32      
10      5       0       4       3       1       32      
3       5       4       1       0       1       32      
2       0       5       1       4       1       32      
6       4       3       4       0       1       32      
2       2       4       0       3       1       32      
0       0       0       0       0       0       
